p cnf 126 520
1 22 43 64 85 0
1 22 43 64 106 0
1 22 43 85 106 0
1 22 64 85 106 0
1 43 64 85 106 0
22 43 64 85 106 0
-1 -22 -43 0
-1 -22 -64 0
-1 -22 -85 0
-1 -22 -106 0
-1 -43 -64 0
-1 -43 -85 0
-1 -43 -106 0
-1 -64 -85 0
-1 -64 -106 0
-1 -85 -106 0
-22 -43 -64 0
-22 -43 -85 0
-22 -43 -106 0
-22 -64 -85 0
-22 -64 -106 0
-22 -85 -106 0
-43 -64 -85 0
-43 -64 -106 0
-43 -85 -106 0
-64 -85 -106 0
2 23 44 65 86 0
2 23 44 65 107 0
2 23 44 86 107 0
2 23 65 86 107 0
2 44 65 86 107 0
23 44 65 86 107 0
-2 -23 -44 0
-2 -23 -65 0
-2 -23 -86 0
-2 -23 -107 0
-2 -44 -65 0
-2 -44 -86 0
-2 -44 -107 0
-2 -65 -86 0
-2 -65 -107 0
-2 -86 -107 0
-23 -44 -65 0
-23 -44 -86 0
-23 -44 -107 0
-23 -65 -86 0
-23 -65 -107 0
-23 -86 -107 0
-44 -65 -86 0
-44 -65 -107 0
-44 -86 -107 0
-65 -86 -107 0
3 24 45 66 87 108 0
-3 -24 0
-3 -45 0
-3 -66 0
-3 -87 0
-3 -108 0
-24 -45 0
-24 -66 0
-24 -87 0
-24 -108 0
-45 -66 0
-45 -87 0
-45 -108 0
-66 -87 0
-66 -108 0
-87 -108 0
4 25 46 67 88 0
4 25 46 67 109 0
4 25 46 88 109 0
4 25 67 88 109 0
4 46 67 88 109 0
25 46 67 88 109 0
-4 -25 -46 0
-4 -25 -67 0
-4 -25 -88 0
-4 -25 -109 0
-4 -46 -67 0
-4 -46 -88 0
-4 -46 -109 0
-4 -67 -88 0
-4 -67 -109 0
-4 -88 -109 0
-25 -46 -67 0
-25 -46 -88 0
-25 -46 -109 0
-25 -67 -88 0
-25 -67 -109 0
-25 -88 -109 0
-46 -67 -88 0
-46 -67 -109 0
-46 -88 -109 0
-67 -88 -109 0
5 26 47 68 89 0
5 26 47 68 110 0
5 26 47 89 110 0
5 26 68 89 110 0
5 47 68 89 110 0
26 47 68 89 110 0
-5 -26 -47 0
-5 -26 -68 0
-5 -26 -89 0
-5 -26 -110 0
-5 -47 -68 0
-5 -47 -89 0
-5 -47 -110 0
-5 -68 -89 0
-5 -68 -110 0
-5 -89 -110 0
-26 -47 -68 0
-26 -47 -89 0
-26 -47 -110 0
-26 -68 -89 0
-26 -68 -110 0
-26 -89 -110 0
-47 -68 -89 0
-47 -68 -110 0
-47 -89 -110 0
-68 -89 -110 0
6 27 48 69 90 111 0
-6 -27 0
-6 -48 0
-6 -69 0
-6 -90 0
-6 -111 0
-27 -48 0
-27 -69 0
-27 -90 0
-27 -111 0
-48 -69 0
-48 -90 0
-48 -111 0
-69 -90 0
-69 -111 0
-90 -111 0
7 28 49 70 91 0
7 28 49 70 112 0
7 28 49 91 112 0
7 28 70 91 112 0
7 49 70 91 112 0
28 49 70 91 112 0
-7 -28 -49 0
-7 -28 -70 0
-7 -28 -91 0
-7 -28 -112 0
-7 -49 -70 0
-7 -49 -91 0
-7 -49 -112 0
-7 -70 -91 0
-7 -70 -112 0
-7 -91 -112 0
-28 -49 -70 0
-28 -49 -91 0
-28 -49 -112 0
-28 -70 -91 0
-28 -70 -112 0
-28 -91 -112 0
-49 -70 -91 0
-49 -70 -112 0
-49 -91 -112 0
-70 -91 -112 0
8 29 50 71 92 0
8 29 50 71 113 0
8 29 50 92 113 0
8 29 71 92 113 0
8 50 71 92 113 0
29 50 71 92 113 0
-8 -29 -50 0
-8 -29 -71 0
-8 -29 -92 0
-8 -29 -113 0
-8 -50 -71 0
-8 -50 -92 0
-8 -50 -113 0
-8 -71 -92 0
-8 -71 -113 0
-8 -92 -113 0
-29 -50 -71 0
-29 -50 -92 0
-29 -50 -113 0
-29 -71 -92 0
-29 -71 -113 0
-29 -92 -113 0
-50 -71 -92 0
-50 -71 -113 0
-50 -92 -113 0
-71 -92 -113 0
9 30 51 72 93 114 0
-9 -30 0
-9 -51 0
-9 -72 0
-9 -93 0
-9 -114 0
-30 -51 0
-30 -72 0
-30 -93 0
-30 -114 0
-51 -72 0
-51 -93 0
-51 -114 0
-72 -93 0
-72 -114 0
-93 -114 0
10 31 52 73 94 0
10 31 52 73 115 0
10 31 52 94 115 0
10 31 73 94 115 0
10 52 73 94 115 0
31 52 73 94 115 0
-10 -31 -52 0
-10 -31 -73 0
-10 -31 -94 0
-10 -31 -115 0
-10 -52 -73 0
-10 -52 -94 0
-10 -52 -115 0
-10 -73 -94 0
-10 -73 -115 0
-10 -94 -115 0
-31 -52 -73 0
-31 -52 -94 0
-31 -52 -115 0
-31 -73 -94 0
-31 -73 -115 0
-31 -94 -115 0
-52 -73 -94 0
-52 -73 -115 0
-52 -94 -115 0
-73 -94 -115 0
11 32 53 74 95 0
11 32 53 74 116 0
11 32 53 95 116 0
11 32 74 95 116 0
11 53 74 95 116 0
32 53 74 95 116 0
-11 -32 -53 0
-11 -32 -74 0
-11 -32 -95 0
-11 -32 -116 0
-11 -53 -74 0
-11 -53 -95 0
-11 -53 -116 0
-11 -74 -95 0
-11 -74 -116 0
-11 -95 -116 0
-32 -53 -74 0
-32 -53 -95 0
-32 -53 -116 0
-32 -74 -95 0
-32 -74 -116 0
-32 -95 -116 0
-53 -74 -95 0
-53 -74 -116 0
-53 -95 -116 0
-74 -95 -116 0
12 33 54 75 96 117 0
-12 -33 0
-12 -54 0
-12 -75 0
-12 -96 0
-12 -117 0
-33 -54 0
-33 -75 0
-33 -96 0
-33 -117 0
-54 -75 0
-54 -96 0
-54 -117 0
-75 -96 0
-75 -117 0
-96 -117 0
13 34 55 76 97 0
13 34 55 76 118 0
13 34 55 97 118 0
13 34 76 97 118 0
13 55 76 97 118 0
34 55 76 97 118 0
-13 -34 -55 0
-13 -34 -76 0
-13 -34 -97 0
-13 -34 -118 0
-13 -55 -76 0
-13 -55 -97 0
-13 -55 -118 0
-13 -76 -97 0
-13 -76 -118 0
-13 -97 -118 0
-34 -55 -76 0
-34 -55 -97 0
-34 -55 -118 0
-34 -76 -97 0
-34 -76 -118 0
-34 -97 -118 0
-55 -76 -97 0
-55 -76 -118 0
-55 -97 -118 0
-76 -97 -118 0
14 35 56 77 98 0
14 35 56 77 119 0
14 35 56 98 119 0
14 35 77 98 119 0
14 56 77 98 119 0
35 56 77 98 119 0
-14 -35 -56 0
-14 -35 -77 0
-14 -35 -98 0
-14 -35 -119 0
-14 -56 -77 0
-14 -56 -98 0
-14 -56 -119 0
-14 -77 -98 0
-14 -77 -119 0
-14 -98 -119 0
-35 -56 -77 0
-35 -56 -98 0
-35 -56 -119 0
-35 -77 -98 0
-35 -77 -119 0
-35 -98 -119 0
-56 -77 -98 0
-56 -77 -119 0
-56 -98 -119 0
-77 -98 -119 0
15 36 57 78 99 120 0
-15 -36 0
-15 -57 0
-15 -78 0
-15 -99 0
-15 -120 0
-36 -57 0
-36 -78 0
-36 -99 0
-36 -120 0
-57 -78 0
-57 -99 0
-57 -120 0
-78 -99 0
-78 -120 0
-99 -120 0
16 37 58 79 100 0
16 37 58 79 121 0
16 37 58 100 121 0
16 37 79 100 121 0
16 58 79 100 121 0
37 58 79 100 121 0
-16 -37 -58 0
-16 -37 -79 0
-16 -37 -100 0
-16 -37 -121 0
-16 -58 -79 0
-16 -58 -100 0
-16 -58 -121 0
-16 -79 -100 0
-16 -79 -121 0
-16 -100 -121 0
-37 -58 -79 0
-37 -58 -100 0
-37 -58 -121 0
-37 -79 -100 0
-37 -79 -121 0
-37 -100 -121 0
-58 -79 -100 0
-58 -79 -121 0
-58 -100 -121 0
-79 -100 -121 0
17 38 59 80 101 0
17 38 59 80 122 0
17 38 59 101 122 0
17 38 80 101 122 0
17 59 80 101 122 0
38 59 80 101 122 0
-17 -38 -59 0
-17 -38 -80 0
-17 -38 -101 0
-17 -38 -122 0
-17 -59 -80 0
-17 -59 -101 0
-17 -59 -122 0
-17 -80 -101 0
-17 -80 -122 0
-17 -101 -122 0
-38 -59 -80 0
-38 -59 -101 0
-38 -59 -122 0
-38 -80 -101 0
-38 -80 -122 0
-38 -101 -122 0
-59 -80 -101 0
-59 -80 -122 0
-59 -101 -122 0
-80 -101 -122 0
18 39 60 81 102 123 0
-18 -39 0
-18 -60 0
-18 -81 0
-18 -102 0
-18 -123 0
-39 -60 0
-39 -81 0
-39 -102 0
-39 -123 0
-60 -81 0
-60 -102 0
-60 -123 0
-81 -102 0
-81 -123 0
-102 -123 0
19 40 61 82 103 0
19 40 61 82 124 0
19 40 61 103 124 0
19 40 82 103 124 0
19 61 82 103 124 0
40 61 82 103 124 0
-19 -40 -61 0
-19 -40 -82 0
-19 -40 -103 0
-19 -40 -124 0
-19 -61 -82 0
-19 -61 -103 0
-19 -61 -124 0
-19 -82 -103 0
-19 -82 -124 0
-19 -103 -124 0
-40 -61 -82 0
-40 -61 -103 0
-40 -61 -124 0
-40 -82 -103 0
-40 -82 -124 0
-40 -103 -124 0
-61 -82 -103 0
-61 -82 -124 0
-61 -103 -124 0
-82 -103 -124 0
20 41 62 83 104 0
20 41 62 83 125 0
20 41 62 104 125 0
20 41 83 104 125 0
20 62 83 104 125 0
41 62 83 104 125 0
-20 -41 -62 0
-20 -41 -83 0
-20 -41 -104 0
-20 -41 -125 0
-20 -62 -83 0
-20 -62 -104 0
-20 -62 -125 0
-20 -83 -104 0
-20 -83 -125 0
-20 -104 -125 0
-41 -62 -83 0
-41 -62 -104 0
-41 -62 -125 0
-41 -83 -104 0
-41 -83 -125 0
-41 -104 -125 0
-62 -83 -104 0
-62 -83 -125 0
-62 -104 -125 0
-83 -104 -125 0
21 42 63 84 105 126 0
-21 -42 0
-21 -63 0
-21 -84 0
-21 -105 0
-21 -126 0
-42 -63 0
-42 -84 0
-42 -105 0
-42 -126 0
-63 -84 0
-63 -105 0
-63 -126 0
-84 -105 0
-84 -126 0
-105 -126 0
-1 -2 -3 -4 -5 -6 -7 -8 -9 -10 -11 -12 -13 -14 -15 -16 -17 -18 -19 -20 -21 0
-22 -23 -24 -25 -26 -27 -28 -29 -30 -31 -32 -33 -34 -35 -36 -37 -38 -39 -40 -41 -42 0
-43 -44 -45 -46 -47 -48 -49 -50 -51 -52 -53 -54 -55 -56 -57 -58 -59 -60 -61 -62 -63 0
-64 -65 -66 -67 -68 -69 -70 -71 -72 -73 -74 -75 -76 -77 -78 -79 -80 -81 -82 -83 -84 0
-85 -86 -87 -88 -89 -90 -91 -92 -93 -94 -95 -96 -97 -98 -99 -100 -101 -102 -103 -104 -105 0
-106 -107 -108 -109 -110 -111 -112 -113 -114 -115 -116 -117 -118 -119 -120 -121 -122 -123 -124 -125 -126 0
-3 -4 0
-6 -7 0
-9 -10 0
-12 -13 0
-15 -16 0
-18 -19 0
-24 -25 0
-27 -28 0
-30 -31 0
-33 -34 0
-36 -37 0
-39 -40 0
-45 -46 0
-48 -49 0
-51 -52 0
-54 -55 0
-57 -58 0
-60 -61 0
-66 -67 0
-69 -70 0
-72 -73 0
-75 -76 0
-78 -79 0
-81 -82 0
-87 -88 0
-90 -91 0
-93 -94 0
-96 -97 0
-99 -100 0
-102 -103 0
-108 -109 0
-111 -112 0
-114 -115 0
-117 -118 0
-120 -121 0
-123 -124 0
4 0
41 0